=1
=2
=0IBM ILOG CPLEX   42.1.0 cb854401 Feb 1, 2023           LEG x86 64bit/Linux    
=1
--- GAMS/Cplex licensed for continuous and discrete problems.
=2
=C
=1
=CReading parameter(s) from "/storage/home/ejm6426/scratch/scRBA/parameterization/kapp/datasets/Yu2021_chemoClimNH4_010_using_rtRBA_methods/min_flux_violation/cplex.opt"
=C>>  optcr = 1E-12
=C>>  optca = 1E-12
=C>>  eprhs = 1E-9
=C>> 
=CFinished reading from "/storage/home/ejm6426/scratch/scRBA/parameterization/kapp/datasets/Yu2021_chemoClimNH4_010_using_rtRBA_methods/min_flux_violation/cplex.opt"
=2
=C
=1
--- GMO setup time: 0.00s
=2
=1
--- Space for names approximately 0.48 Mb
=2
=1
--- Use option 'names no' to turn use of names off
=2
=1
--- GMO memory 5.78 Mb (peak 5.86 Mb)
=2
=1
--- Dictionary memory 0.00 Mb
=2
=1
--- Cplex 22.1.1.0 link memory 0.26 Mb (peak 1.91 Mb)
=2
=1
--- Starting Cplex
=2
=C
Version identifier: 22.1.1.0 | 2022-11-28 | 9160aff4d
CPXPARAM_Advance                                 0
CPXPARAM_Threads                                 1
CPXPARAM_MIP_Display                             4
CPXPARAM_MIP_Pool_Capacity                       0
CPXPARAM_Simplex_Limits_Iterations               1000000
CPXPARAM_Simplex_Tolerances_Feasibility          1.0000000000000001e-09
CPXPARAM_TimeLimit                               1000
CPXPARAM_MIP_Tolerances_AbsMIPGap                9.9999999999999998e-13
CPXPARAM_MIP_Tolerances_MIPGap                   9.9999999999999998e-13
Tried aggregator 1 time.
LP Presolve eliminated 602 rows and 4213 columns.
Aggregator did 1524 substitutions.
Reduced LP has 2504 rows, 4945 columns, and 43965 nonzeros.
Presolve time = 0.03 sec. (20.84 ticks)

Iteration log . . .
Iteration:     1   Dual objective     =             0.000000
Perturbation started.
Iteration:   101   Dual objective     =             0.000000
Iteration:   246   Dual objective     =         14725.747681
Iteration:   346   Dual objective     =         16133.330366
Iteration:   425   Dual objective     =         16347.480469
Iteration:   506   Dual objective     =         16417.975732
Iteration:   606   Dual objective     =         16418.397580
Iteration:   697   Dual objective     =         16418.758196
Iteration:   807   Dual objective     =         16419.151692
Removing perturbation.
Iteration:   894   Scaled dual infeas =         40991.691813
Iteration:   900   Dual objective     = -13951281567191040.000000
Iteration:  1032   Dual objective     = -442491927310369.812500
Iteration:  1175   Dual objective     = -54152436231820.000000
Iteration:  1322   Dual objective     =        119992.863697
Removing shift (140).
=C
=1
--- LP status (3): infeasible.
=2
=1
--- Cplex Time: 0.24sec (det. 173.07 ticks)

=2
=C
=CModel has been proven infeasible
=C
